gil262_1
0 175 236 94 69 143 226 237 50 114 255 174 71 213 257 52 36 187 125 115 78 5 169 137 182 232 77 162 48 229 14 126 165 133 201 70 195 2 76 15 116 37 258 168 251 204 196 98 161 10 199 192 75 208 60 129 104 190 239 32 121 170 72 122 4 110 252 224 57 191 140 49 234 97 144 109 79 148 27 5 22 54 209 180 29 238 193 183 181 18 202 124 210 85 203 31 197 12 149 61 141 233 154 214 166 112 198 157 256 120 167 3 127 93 107 46 40 172 152 153 227 20 158 261 74 55 235 51 5 68 254 231 28 249 81 189 0